Minimize
	value: tt

Subject to
tt + 2000 s_1_1 > 0
tt - t_1_1 - 2000.000000 s_1_1 > -1995.326100
tt + 2000 s_2_1 > 0
tt - t_2_1 - 2000.000000 s_2_1 > -1997.541700
tt + 2000 s_1_2 > 0
tt - t_1_2 - 2000.000000 s_1_2 > -1988.427100
tt + 2000 s_2_2 > 0
tt - t_2_2 - 2000.000000 s_2_2 > -1993.335200
tt + 2000 s_1_3 > 0
tt - t_1_3 - 2000.000000 s_1_3 > -1980.656700
tt + 2000 s_2_3 > 0
tt - t_2_3 - 2000.000000 s_2_3 > -1988.981800
tt + 2000 s_1_4 > 0
tt - t_1_4 - 2000.000000 s_1_4 > -1997.418800
tt + 2000 s_2_4 > 0
tt - t_2_4 - 2000.000000 s_2_4 > -1997.573200
tt + 2000 s_1_5 > 0
tt - t_1_5 - 2048.000000 s_1_5 + 48.000000 s_1_2 > -1999.811600
tt + 2000 s_2_5 > 0
tt - t_2_5 - 2048.000000 s_2_5 + 48.000000 s_2_2 > -1998.748900
s_1_1 + s_2_1  = 1
s_1_2 + s_2_2  = 1
s_1_3 + s_2_3  = 1
s_1_4 + s_2_4  = 1
s_1_5 + s_2_5  = 1
t_1_1 - t_1_2 + 2000.000000 u_1_1_2 > 11.572900
t_1_2 - t_1_1 - 2000.000000 u_1_1_2 > -1995.326100
t_2_1 - t_2_2 + 2000.000000 u_2_1_2 > 6.664800
t_2_2 - t_2_1 - 2000.000000 u_2_1_2 > -1997.541700
t_1_1 - t_1_3 + 2000.000000 u_1_1_3 > 19.343300
t_1_3 - t_1_1 - 2000.000000 u_1_1_3 > -1995.326100
t_2_1 - t_2_3 + 2000.000000 u_2_1_3 > 11.018200
t_2_3 - t_2_1 - 2000.000000 u_2_1_3 > -1997.541700
t_1_1 - t_1_4 + 2000.000000 u_1_1_4 > 2.581200
t_1_4 - t_1_1 - 2000.000000 u_1_1_4 > -1995.326100
t_2_1 - t_2_4 + 2000.000000 u_2_1_4 > 2.426800
t_2_4 - t_2_1 - 2000.000000 u_2_1_4 > -1997.541700
t_1_5 - t_1_1 - 2000.000000 s_1_1 > -1991.685230
t_1_5 - t_2_1 - 2000.000000 s_2_1 > -1991.886710
t_2_5 - t_1_1 - 2000.000000 s_1_1 > -1991.685230
t_2_5 - t_2_1 - 2000.000000 s_2_1 > -1991.886710
t_1_2 - t_1_1 + 2000.000000 u_1_2_1 > 4.673900
t_1_1 - t_1_2 - 2000.000000 u_1_2_1 > -1988.427100
t_2_2 - t_2_1 + 2000.000000 u_2_2_1 > 2.458300
t_2_1 - t_2_2 - 2000.000000 u_2_2_1 > -1993.335200
t_1_2 - t_1_3 + 2000.000000 u_1_2_3 > 19.343300
t_1_3 - t_1_2 - 2000.000000 u_1_2_3 > -1988.427100
t_2_2 - t_2_3 + 2000.000000 u_2_2_3 > 11.018200
t_2_3 - t_2_2 - 2000.000000 u_2_2_3 > -1993.335200
t_1_2 - t_1_4 + 2000.000000 u_1_2_4 > 2.581200
t_1_4 - t_1_2 - 2000.000000 u_1_2_4 > -1988.427100
t_2_2 - t_2_4 + 2000.000000 u_2_2_4 > 2.426800
t_2_4 - t_2_2 - 2000.000000 u_2_2_4 > -1993.335200
t_1_5 - t_1_2 - 2000.000000 s_1_2 > -1984.786230
t_1_5 - t_2_2 - 2000.000000 s_2_2 > -1987.680210
t_2_5 - t_1_2 - 2000.000000 s_1_2 > -1984.786230
t_2_5 - t_2_2 - 2000.000000 s_2_2 > -1987.680210
t_1_3 - t_1_1 + 2000.000000 u_1_3_1 > 4.673900
t_1_1 - t_1_3 - 2000.000000 u_1_3_1 > -1980.656700
t_2_3 - t_2_1 + 2000.000000 u_2_3_1 > 2.458300
t_2_1 - t_2_3 - 2000.000000 u_2_3_1 > -1988.981800
t_1_3 - t_1_2 + 2000.000000 u_1_3_2 > 11.572900
t_1_2 - t_1_3 - 2000.000000 u_1_3_2 > -1980.656700
t_2_3 - t_2_2 + 2000.000000 u_2_3_2 > 6.664800
t_2_2 - t_2_3 - 2000.000000 u_2_3_2 > -1988.981800
t_1_3 - t_1_4 + 2000.000000 u_1_3_4 > 2.581200
t_1_4 - t_1_3 - 2000.000000 u_1_3_4 > -1980.656700
t_2_3 - t_2_4 + 2000.000000 u_2_3_4 > 2.426800
t_2_4 - t_2_3 - 2000.000000 u_2_3_4 > -1988.981800
t_1_5 - t_1_3 - 2000.000000 s_1_3 > -1977.015830
t_1_5 - t_2_3 - 2000.000000 s_2_3 > -1983.326810
t_2_5 - t_1_3 - 2000.000000 s_1_3 > -1977.015830
t_2_5 - t_2_3 - 2000.000000 s_2_3 > -1983.326810
t_1_4 - t_1_1 + 2000.000000 u_1_4_1 > 4.673900
t_1_1 - t_1_4 - 2000.000000 u_1_4_1 > -1997.418800
t_2_4 - t_2_1 + 2000.000000 u_2_4_1 > 2.458300
t_2_1 - t_2_4 - 2000.000000 u_2_4_1 > -1997.573200
t_1_4 - t_1_2 + 2000.000000 u_1_4_2 > 11.572900
t_1_2 - t_1_4 - 2000.000000 u_1_4_2 > -1997.418800
t_2_4 - t_2_2 + 2000.000000 u_2_4_2 > 6.664800
t_2_2 - t_2_4 - 2000.000000 u_2_4_2 > -1997.573200
t_1_4 - t_1_3 + 2000.000000 u_1_4_3 > 19.343300
t_1_3 - t_1_4 - 2000.000000 u_1_4_3 > -1997.418800
t_2_4 - t_2_3 + 2000.000000 u_2_4_3 > 11.018200
t_2_3 - t_2_4 - 2000.000000 u_2_4_3 > -1997.573200
t_1_5 - t_1_4 - 2000.000000 s_1_4 > -1993.777930
t_1_5 - t_2_4 - 2000.000000 s_2_4 > -1991.918210
t_2_5 - t_1_4 - 2000.000000 s_1_4 > -1993.777930
t_2_5 - t_2_4 - 2000.000000 s_2_4 > -1991.918210
t_1_5 - t_1_1 - 2000.000000 s_1_1 > -1991.685230
t_1_5 - t_2_1 - 2000.000000 s_2_1 > -1991.886710
t_2_5 - t_1_1 - 2000.000000 s_1_1 > -1991.685230
t_2_5 - t_2_1 - 2000.000000 s_2_1 > -1991.886710
t_1_5 - t_1_2 - 2000.000000 s_1_2 > -1984.786230
t_1_5 - t_2_2 - 2000.000000 s_2_2 > -1987.680210
t_2_5 - t_1_2 - 2000.000000 s_1_2 > -1984.786230
t_2_5 - t_2_2 - 2000.000000 s_2_2 > -1987.680210
t_1_5 - t_1_3 - 2000.000000 s_1_3 > -1977.015830
t_1_5 - t_2_3 - 2000.000000 s_2_3 > -1983.326810
t_2_5 - t_1_3 - 2000.000000 s_1_3 > -1977.015830
t_2_5 - t_2_3 - 2000.000000 s_2_3 > -1983.326810
t_1_5 - t_1_4 - 2000.000000 s_1_4 > -1993.777930
t_1_5 - t_2_4 - 2000.000000 s_2_4 > -1991.918210
t_2_5 - t_1_4 - 2000.000000 s_1_4 > -1993.777930
t_2_5 - t_2_4 - 2000.000000 s_2_4 > -1991.918210
Binary
s_1_1
s_2_1
s_1_2
s_2_2
s_1_3
s_2_3
s_1_4
s_2_4
s_1_5
s_2_5
u_1_1_2
u_2_1_2
u_1_1_3
u_2_1_3
u_1_1_4
u_2_1_4
u_1_2_1
u_2_2_1
u_1_2_3
u_2_2_3
u_1_2_4
u_2_2_4
u_1_3_1
u_2_3_1
u_1_3_2
u_2_3_2
u_1_3_4
u_2_3_4
u_1_4_1
u_2_4_1
u_1_4_2
u_2_4_2
u_1_4_3
u_2_4_3

End
